40773.3 0
0 49 168 174 129 80 33 148 185 37 65 7 51 45 145 124 108 120 189 100 194 73 111 60 170 126 75 79 193 156 133 160 134 71 56 30 98 44 165 32 67 13 186 64 173 159 85 95 142 188 84 58 149 63 39 82 2 176 4 117 123 52 59 43 3 154 70 187 121 122 42 76 53 90 38 72 62 153 14 136 171 83 40 164 23 26 87 178 12 78 146 180 15 151 157 183 106 68 92 115 101 8 141 19 24 113 163 181 20 46 132 114 11 27 105 103 182 81 9 54 112 25 86 162 130 147 94 55 150 177 116 91 140 47 144 135 18 191 50 118 34 36 195 61 99 1 143 29 5 17 77 6 197 131 66 74 158 35 128 107 198 196 190 28 127 57 110 192 21 184 172 102 175 22 109 167 10 89 16 139 138 169 48 69 152 97 93 31 104 96 166 88 41 179 119 137 199 155 125 161 
